
Gurobi 11.0.1 (mac64[arm]) logging started Fri May  3 01:37:53 2024

Set parameter LogFile to value "../models/model_moo(May 03,0137).log"
Gurobi Optimizer version 11.0.1 build v11.0.1rc0 (mac64[arm] - Darwin 23.2.0 23C71)

CPU model: Apple M2
Thread count: 8 physical cores, 8 logical processors, using up to 8 threads

Optimize a model with 1832 rows, 1436 columns and 4534 nonzeros
Model fingerprint: 0x3c66ad60
Variable types: 1062 continuous, 374 integer (374 binary)
Coefficient statistics:
  Matrix range     [1e+00, 2e+25]
  Objective range  [1e-02, 2e+02]
  Bounds range     [1e+00, 1e+00]
  RHS range        [1e+00, 1e+12]
Warning: Model contains large matrix coefficient range
Warning: Model contains large rhs
         Consider reformulating model or setting NumericFocus parameter
         to avoid numerical issues.

---------------------------------------------------------------------------
Multi-objectives: starting optimization with 2 objectives ... 
---------------------------------------------------------------------------

Multi-objectives: applying initial presolve ...
---------------------------------------------------------------------------

Presolve removed 1337 rows and 708 columns
Presolve time: 0.00s
Presolved: 495 rows, 728 columns, 1477 nonzeros
---------------------------------------------------------------------------

Multi-objectives: optimize objective 1 (objective_re_1) ...
---------------------------------------------------------------------------

Found heuristic solution: objective 0.0000000
Presolve removed 79 rows and 373 columns
Presolve time: 0.00s
Presolved: 416 rows, 355 columns, 1025 nonzeros
Variable types: 0 continuous, 355 integer (355 binary)
Found heuristic solution: objective -836.5199555

Root relaxation: objective -1.006003e+03, 368 iterations, 0.00 seconds (0.00 work units)

    Nodes    |    Current Node    |     Objective Bounds      |     Work
 Expl Unexpl |  Obj  Depth IntInf | Incumbent    BestBd   Gap | It/Node Time

*    0     0               0    -1006.003020 -1006.0030  0.00%     -    0s

Explored 1 nodes (368 simplex iterations) in 0.01 seconds (0.01 work units)
Thread count was 8 (of 8 available processors)

Solution count 2: -1006 -836.52 
No other solutions better than -1006

Optimal solution found (tolerance 1.00e-04)
Best objective -1.006003020433e+03, best bound -1.006003020433e+03, gap 0.0000%
---------------------------------------------------------------------------

Multi-objectives: optimize objective 2 (objective_cost_2) ...
---------------------------------------------------------------------------


Loaded user MIP start with objective 525

Presolve removed 88 rows and 380 columns
Presolve time: 0.00s
Presolved: 408 rows, 348 columns, 1336 nonzeros
Found heuristic solution: objective -1228.640889
Variable types: 0 continuous, 348 integer (348 binary)

Root relaxation: objective -1.236024e+03, 542 iterations, 0.00 seconds (0.01 work units)

    Nodes    |    Current Node    |     Objective Bounds      |     Work
 Expl Unexpl |  Obj  Depth IntInf | Incumbent    BestBd   Gap | It/Node Time

     0     0 infeasible    0      -1228.6409 -1228.6409  0.00%     -    0s

Explored 1 nodes (542 simplex iterations) in 0.03 seconds (0.02 work units)
Thread count was 8 (of 8 available processors)

Solution count 1: -1228.64 
No other solutions better than -1228.64

Optimal solution found (tolerance 1.00e-04)
Best objective -1.228640888889e+03, best bound -1.228640888889e+03, gap 0.0000%

---------------------------------------------------------------------------
Multi-objectives: solved in 0.03 seconds (0.02 work units), solution count 3


    Variable            X 
-------------------------
cover[o74,s13]            1 
cover[o98,s13]            1 
cover[o53,s7]            1 
cover[o203,s19]            1 
cover[o127,s13]            1 
cover[o51,s13]            1 
cover[o7,s19]            1 
cover[o30,s1]            1 
cover[o221,s1]            1 
cover[o64,s7]            1 
cover[o25,s1]            1 
cover[o94,s19]            1 
cover[o119,s13]            1 
cover[o148,s7]            1 
cover[o86,s19]            1 
cover[o93,s19]            1 
cover[o108,s13]            1 
cover[o131,s7]            1 
cover[o6,s19]            1 
cover[o10,s19]            1 
cover[o144,s7]            1 
cover[o169,s1]            1 
cover[o185,s1]            1 
cover[o87,s19]            1 
cover[o24,s1]            1 
cover[o190,s7]            1 
cover[o97,s13]            1 
cover[o106,s13]            1 
cover[o136,s7]            1 
cover[o145,s7]            1 
cover[o3,s7]            1 
cover[o28,s1]            1 
cover[o27,s1]            1 
cover[o219,s1]            1 
cover[o9,s13]            1 
cover[o212,s7]            1 
cover[o139,s7]            1 
cover[o214,s7]            1 
cover[o113,s13]            1 
cover[o191,s7]            1 
cover[o104,s13]            1 
cover[o184,s1]            1 
cover[o37,s1]            1 
cover[o83,s19]            1 
cover[o114,s13]            1 
cover[o91,s19]            1 
cover[o138,s7]            1 
cover[o183,s1]            1 
cover[o11,s13]            1 
cover[o181,s1]            1 
cover[o48,s13]            1 
cover[o129,s13]            1 
cover[o117,s13]            1 
cover[o101,s13]            1 
cover[o44,s19]            1 
cover[o109,s13]            1 
cover[o59,s7]            1 
cover[o121,s13]            1 
cover[o13,s7]            1 
cover[o128,s13]            1 
cover[o90,s19]            1 
cover[o79,s19]            1 
cover[o130,s7]            1 
cover[o107,s13]            1 
cover[o19,s7]            1 
cover[o22,s1]            1 
cover[o187,s1]            1 
cover[o84,s19]            1 
cover[o132,s7]            1 
cover[o198,s1]            1 
cover[o49,s13]            1 
cover[o116,s13]            1 
cover[o124,s13]            1 
cover[o134,s7]            1 
cover[o82,s19]            1 
cover[o220,s1]            1 
cover[o192,s1]            1 
cover[o78,s19]            1 
 select[s13]            1 
  select[s1]            1 
  select[s7]            1 
 select[s19]            1 
deploy[o74,s13,m]           20 
deploy[o74,s19,m]           20 
deploy[o98,s13,c]           31 
deploy[o53,s7,c]          110 
deploy[o203,s19,c]            5 
deploy[o127,s13,m]            2 
deploy[o51,s13,i]           37 
deploy[o7,s19,m]           20 
deploy[o30,s1,i]          157 
deploy[o221,s1,m]          100 
deploy[o64,s7,m]           20 
deploy[o25,s1,m]           20 
deploy[o94,s19,m]            2 
deploy[o119,s13,m]          100 
deploy[o148,s7,c]            5 
deploy[o93,s19,m]            2 
deploy[o108,s13,c]           31 
deploy[o131,s7,i]            7 
deploy[o6,s19,m]          100 
deploy[o10,s19,c]          110 
deploy[o144,s7,c]          110 
deploy[o169,s1,i]           37 
deploy[o185,s1,i]          157 
deploy[o24,s1,i]            7 
deploy[o190,s7,i]           37 
deploy[o97,s13,c]            5 
deploy[o106,s13,m]            2 
deploy[o136,s7,i]          157 
deploy[o145,s7,m]           20 
deploy[o3,s7,m]           20 
deploy[o28,s1,c]           31 
deploy[o27,s1,i]           37 
deploy[o219,s1,c]            5 
deploy[o9,s13,m]           20 
deploy[o212,s7,m]            2 
deploy[o139,s7,c]           31 
deploy[o214,s7,m]           20 
deploy[o113,s13,i]            7 
deploy[o191,s7,i]           37 
deploy[o104,s13,i]            7 
deploy[o184,s1,i]           37 
deploy[o37,s1,i]            7 
deploy[o83,s19,c]           31 
deploy[o114,s13,m]          100 
deploy[o91,s19,c]            5 
deploy[o138,s7,c]          110 
deploy[o183,s1,c]            5 
deploy[o11,s13,m]          100 
deploy[o181,s1,m]          100 
deploy[o48,s13,c]            5 
deploy[o129,s13,i]          157 
deploy[o117,s13,m]           20 
deploy[o101,s13,m]           20 
deploy[o44,s19,c]           31 
deploy[o109,s13,c]            5 
deploy[o59,s7,c]            5 
deploy[o121,s13,i]          157 
deploy[o13,s7,m]            2 
deploy[o128,s13,c]            5 
deploy[o90,s19,m]           20 
deploy[o79,s19,m]          100 
deploy[o130,s7,i]            7 
deploy[o107,s13,c]           31 
deploy[o19,s7,m]            2 
deploy[o22,s1,c]          110 
deploy[o187,s1,i]            7 
deploy[o132,s7,m]            2 
deploy[o198,s1,c]            5 
deploy[o49,s13,c]          110 
deploy[o116,s13,i]           37 
deploy[o124,s13,m]          100 
deploy[o134,s7,m]          100 
deploy[o82,s19,c]           31 
deploy[o220,s1,m]           20 
deploy[o192,s1,c]            5 
deploy[o78,s19,c]           31 

Gurobi 11.0.1 (mac64[arm]) logging started Fri May  3 01:37:56 2024

Set parameter LogFile to value "../models/model_moo(May 03,0137).log"
Gurobi Optimizer version 11.0.1 build v11.0.1rc0 (mac64[arm] - Darwin 23.2.0 23C71)

CPU model: Apple M2
Thread count: 8 physical cores, 8 logical processors, using up to 8 threads

Optimize a model with 1832 rows, 1436 columns and 4534 nonzeros
Model fingerprint: 0x0770b137
Variable types: 1062 continuous, 374 integer (374 binary)
Coefficient statistics:
  Matrix range     [1e+00, 2e+25]
  Objective range  [1e-02, 2e+02]
  Bounds range     [1e+00, 1e+00]
  RHS range        [1e+00, 1e+12]
Warning: Model contains large matrix coefficient range
Warning: Model contains large rhs
         Consider reformulating model or setting NumericFocus parameter
         to avoid numerical issues.

---------------------------------------------------------------------------
Multi-objectives: starting optimization with 2 objectives ... 
---------------------------------------------------------------------------

Multi-objectives: applying initial presolve ...
---------------------------------------------------------------------------

Presolve removed 1337 rows and 708 columns
Presolve time: 0.00s
Presolved: 495 rows, 728 columns, 1477 nonzeros
---------------------------------------------------------------------------

Multi-objectives: optimize objective 1 (objective_re_1) ...
---------------------------------------------------------------------------

Found heuristic solution: objective 0.0000000
Presolve removed 79 rows and 373 columns
Presolve time: 0.00s
Presolved: 416 rows, 355 columns, 1025 nonzeros
Variable types: 0 continuous, 355 integer (355 binary)
Found heuristic solution: objective -1110.231430

Root relaxation: objective -1.149278e+03, 158 iterations, 0.00 seconds (0.00 work units)

    Nodes    |    Current Node    |     Objective Bounds      |     Work
 Expl Unexpl |  Obj  Depth IntInf | Incumbent    BestBd   Gap | It/Node Time

*    0     0               0    -1149.278387 -1149.2784  0.00%     -    0s

Explored 1 nodes (158 simplex iterations) in 0.02 seconds (0.01 work units)
Thread count was 8 (of 8 available processors)

Solution count 2: -1149.28 -1110.23 
No other solutions better than -1149.28

Optimal solution found (tolerance 1.00e-04)
Best objective -1.149278387075e+03, best bound -1.149278387075e+03, gap 0.0000%
---------------------------------------------------------------------------

Multi-objectives: optimize objective 2 (objective_cost_2) ...
---------------------------------------------------------------------------


Loaded user MIP start with objective 1400

Presolve removed 140 rows and 422 columns
Presolve time: 0.00s
Presolved: 356 rows, 306 columns, 1171 nonzeros
Found heuristic solution: objective -5592.989139
Variable types: 0 continuous, 306 integer (306 binary)

Root relaxation: objective -6.811992e+03, 409 iterations, 0.00 seconds (0.00 work units)

    Nodes    |    Current Node    |     Objective Bounds      |     Work
 Expl Unexpl |  Obj  Depth IntInf | Incumbent    BestBd   Gap | It/Node Time

     0     0 -6811.9919    0   30 -5592.9891 -6811.9919  21.8%     -    0s
H    0     0                    -6810.967528 -6811.9919  0.02%     -    0s

Explored 1 nodes (409 simplex iterations) in 0.04 seconds (0.02 work units)
Thread count was 8 (of 8 available processors)

Solution count 2: -6810.97 -5592.99 
No other solutions better than -6810.97

Optimal solution found (tolerance 1.00e-04)
Best objective -6.810967527778e+03, best bound -6.810967527778e+03, gap 0.0000%

---------------------------------------------------------------------------
Multi-objectives: solved in 0.04 seconds (0.02 work units), solution count 4


    Variable            X 
-------------------------
cover[o74,s16]            1 
cover[o98,s16]            1 
cover[o53,s10]            1 
cover[o178,s2]            1 
cover[o203,s20]            1 
cover[o127,s16]            1 
cover[o172,s2]            1 
cover[o51,s12]            1 
cover[o7,s20]            1 
cover[o30,s1]            1 
cover[o221,s1]            1 
cover[o64,s10]            1 
cover[o25,s1]            1 
cover[o94,s20]            1 
cover[o119,s12]            1 
cover[o148,s3]            1 
cover[o208,s4]            1 
cover[o86,s20]            1 
cover[o93,s20]            1 
cover[o108,s12]            1 
cover[o131,s10]            1 
cover[o6,s20]            1 
cover[o10,s20]            1 
cover[o41,s2]            1 
cover[o144,s3]            1 
cover[o169,s2]            1 
cover[o185,s1]            1 
cover[o87,s20]            1 
cover[o168,s2]            1 
cover[o24,s1]            1 
cover[o190,s10]            1 
cover[o97,s16]            1 
cover[o162,s2]            1 
cover[o106,s16]            1 
cover[o157,s3]            1 
cover[o175,s2]            1 
cover[o136,s10]            1 
cover[o145,s3]            1 
cover[o3,s10]            1 
cover[o28,s1]            1 
cover[o45,s10]            1 
cover[o27,s1]            1 
cover[o219,s1]            1 
cover[o9,s16]            1 
cover[o212,s4]            1 
cover[o139,s10]            1 
cover[o214,s4]            1 
cover[o113,s12]            1 
cover[o160,s3]            1 
cover[o191,s10]            1 
cover[o104,s12]            1 
cover[o184,s1]            1 
cover[o37,s2]            1 
cover[o165,s2]            1 
cover[o83,s20]            1 
cover[o114,s12]            1 
cover[o155,s3]            1 
cover[o91,s20]            1 
cover[o138,s10]            1 
cover[o183,s1]            1 
cover[o11,s12]            1 
cover[o181,s1]            1 
cover[o159,s2]            1 
cover[o48,s12]            1 
cover[o129,s16]            1 
cover[o158,s2]            1 
cover[o117,s12]            1 
cover[o153,s3]            1 
cover[o101,s12]            1 
cover[o44,s16]            1 
cover[o109,s16]            1 
cover[o59,s10]            1 
cover[o121,s12]            1 
cover[o13,s10]            1 
cover[o128,s16]            1 
cover[o90,s20]            1 
cover[o79,s16]            1 
cover[o161,s3]            1 
cover[o163,s3]            1 
cover[o130,s12]            1 
cover[o107,s12]            1 
cover[o42,s2]            1 
cover[o19,s3]            1 
cover[o22,s1]            1 
cover[o187,s1]            1 
cover[o84,s16]            1 
cover[o132,s10]            1 
cover[o198,s1]            1 
cover[o49,s16]            1 
cover[o116,s12]            1 
cover[o124,s12]            1 
cover[o134,s10]            1 
cover[o82,s20]            1 
cover[o220,s1]            1 
cover[o207,s4]            1 
cover[o43,s2]            1 
cover[o192,s1]            1 
cover[o174,s2]            1 
cover[o78,s16]            1 
 select[s12]            1 
  select[s1]            1 
  select[s3]            1 
 select[s16]            1 
  select[s2]            1 
 select[s10]            1 
  select[s4]            1 
 select[s20]            1 
deploy[o74,s16,m]           20 
deploy[o98,s16,c]           31 
deploy[o53,s10,c]          110 
deploy[o178,s2,c]          110 
deploy[o203,s20,c]            5 
deploy[o127,s12,m]            2 
deploy[o127,s16,m]            2 
deploy[o172,s3,m]            2 
deploy[o51,s12,i]           37 
deploy[o51,s16,i]           37 
deploy[o7,s16,m]           20 
deploy[o7,s20,m]           20 
deploy[o30,s1,i]          157 
deploy[o221,s1,m]          100 
deploy[o64,s10,m]           20 
deploy[o25,s1,m]           20 
deploy[o94,s20,m]            2 
deploy[o119,s12,m]          100 
deploy[o148,s3,c]            5 
deploy[o148,s4,c]            5 
deploy[o208,s3,c]          110 
deploy[o208,s4,c]          110 
deploy[o86,s20,i]          157 
deploy[o93,s20,m]            2 
deploy[o108,s12,c]           31 
deploy[o131,s10,i]            7 
deploy[o131,s12,i]            7 
deploy[o6,s20,m]          100 
deploy[o10,s16,c]          110 
deploy[o10,s20,c]          110 
deploy[o41,s3,m]          100 
deploy[o144,s3,c]          110 
deploy[o144,s4,c]          110 
deploy[o169,s1,i]           37 
deploy[o169,s2,i]           37 
deploy[o185,s1,i]          157 
deploy[o87,s20,i]          157 
deploy[o168,s3,m]           20 
deploy[o24,s1,i]            7 
deploy[o24,s2,i]            7 
deploy[o190,s10,i]           37 
deploy[o97,s12,c]            5 
deploy[o97,s16,c]            5 
deploy[o162,s2,i]            7 
deploy[o162,s4,i]            7 
deploy[o106,s16,m]            2 
deploy[o157,s3,m]            2 
deploy[o157,s4,m]            2 
deploy[o136,s10,i]          157 
deploy[o136,s12,i]          157 
deploy[o145,s3,m]           20 
deploy[o145,s4,m]           20 
deploy[o3,s10,m]           20 
deploy[o28,s1,c]           31 
deploy[o45,s10,m]           20 
deploy[o27,s1,i]           37 
deploy[o219,s1,c]            5 
deploy[o9,s12,m]           20 
deploy[o9,s16,m]           20 
deploy[o212,s3,m]            2 
deploy[o212,s4,m]            2 
deploy[o139,s10,c]           31 
deploy[o139,s12,c]           31 
deploy[o214,s3,m]           20 
deploy[o214,s4,m]           20 
deploy[o113,s12,i]            7 
deploy[o160,s3,m]           20 
deploy[o160,s4,m]           20 
deploy[o191,s10,i]           37 
deploy[o104,s12,i]            7 
deploy[o104,s16,i]            7 
deploy[o184,s1,i]           37 
deploy[o37,s1,i]            7 
deploy[o37,s2,i]            7 
deploy[o165,s2,i]            7 
deploy[o83,s16,c]           31 
deploy[o83,s20,c]           31 
deploy[o114,s12,m]          100 
deploy[o155,s2,i]            7 
deploy[o155,s4,i]            7 
deploy[o91,s20,c]            5 
deploy[o138,s10,c]          110 
deploy[o183,s1,c]            5 
deploy[o11,s12,m]          100 
deploy[o11,s16,m]          100 
deploy[o181,s1,m]          100 
deploy[o159,s2,i]           37 
deploy[o159,s4,i]           37 
deploy[o48,s12,c]            5 
deploy[o129,s12,i]          157 
deploy[o129,s16,i]          157 
deploy[o158,s2,c]          110 
deploy[o158,s3,c]          110 
deploy[o158,s4,c]          110 
deploy[o117,s12,m]           20 
deploy[o153,s2,c]            5 
deploy[o153,s3,c]            5 
deploy[o153,s4,c]            5 
deploy[o101,s12,m]           20 
deploy[o44,s16,c]           31 
deploy[o109,s16,c]            5 
deploy[o59,s10,c]            5 
deploy[o121,s12,i]          157 
deploy[o13,s10,m]            2 
deploy[o13,s12,m]            2 
deploy[o128,s12,c]            5 
deploy[o128,s16,c]            5 
deploy[o90,s20,m]           20 
deploy[o79,s16,m]          100 
deploy[o161,s2,i]           37 
deploy[o161,s4,i]           37 
deploy[o163,s2,c]          110 
deploy[o163,s3,c]          110 
deploy[o163,s4,c]          110 
deploy[o130,s10,i]            7 
deploy[o130,s12,i]            7 
deploy[o107,s12,c]           31 
deploy[o19,s3,m]            2 
deploy[o22,s1,c]          110 
deploy[o187,s1,i]            7 
deploy[o84,s16,i]           37 
deploy[o84,s20,i]           37 
deploy[o132,s10,m]            2 
deploy[o132,s12,m]            2 
deploy[o198,s1,c]            5 
deploy[o49,s16,c]          110 
deploy[o116,s12,i]           37 
deploy[o124,s12,m]          100 
deploy[o134,s10,m]          100 
deploy[o134,s12,m]          100 
deploy[o82,s16,c]           31 
deploy[o82,s20,c]           31 
deploy[o220,s1,m]           20 
deploy[o207,s3,m]            2 
deploy[o207,s4,m]            2 
deploy[o43,s2,i]          157 
deploy[o192,s1,c]            5 
deploy[o174,s2,i]          157 
deploy[o78,s16,c]           31 
